300
120 120
1 96 501
2 94 2
3 94 477
4 94 730
5 94 280
6 94 313
7 94 559
8 94 118
9 93 24
10 93 296
11 93 55
12 93 930
13 93 734
14 92 104
15 92 851
16 92 357
17 92 804
18 91 895
19 90 744
20 90 738
21 90 895
22 89 335
23 89 742
24 89 247
25 89 33
26 88 117
27 88 551
28 88 925
29 88 884
30 87 90
31 87 29
32 86 58
33 86 494
34 86 186
35 85 928
36 85 314
37 85 727
38 84 452
39 84 280
40 84 666
41 84 896
42 83 691
43 83 677
44 83 988
45 82 270
46 82 154
47 82 878
48 81 224
49 80 280
50 80 605
51 80 314
52 80 454
53 80 466
54 79 751
55 79 626
56 79 258
57 79 939
58 79 192
59 79 454
60 78 360
61 78 835
62 78 786
63 78 555
64 77 591
65 77 362
66 77 711
67 77 528
68 77 894
69 77 474
70 76 361
71 76 804
72 76 55
73 76 150
74 76 837
75 76 810
76 76 389
77 75 518
78 74 213
79 74 44
80 74 423
81 74 95
82 74 479
83 74 661
84 73 897
85 73 80
86 73 762
87 72 637
88 72 809
89 72 731
90 72 184
91 71 491
92 71 541
93 71 744
94 71 913
95 70 186
96 69 922
97 68 407
98 68 636
99 67 582
100 67 689
101 67 863
102 66 228
103 66 269
104 66 890
105 65 434
106 65 427
107 65 344
108 64 780
109 64 510
110 64 561
111 64 48
112 64 633
113 63 284
114 63 600
115 63 957
116 62 816
117 62 974
118 61 57
119 61 207
120 61 817
121 60 208
122 60 523
123 60 10
124 60 794
125 59 577
126 59 193
127 59 79
128 58 622
129 58 995
130 58 774
131 58 441
132 58 471
133 58 948
134 57 560
135 57 952
136 57 308
137 57 662
138 57 924
139 56 520
140 56 789
141 56 32
142 56 501
143 55 792
144 55 776
145 55 954
146 55 868
147 55 190
148 54 229
149 53 228
150 53 292
151 53 881
152 53 75
153 53 251
154 53 886
155 53 984
156 53 142
157 52 100
158 52 325
159 52 286
160 52 185
161 50 709
162 50 309
163 50 76
164 50 528
165 50 86
166 50 503
167 50 395
168 49 761
169 49 730
170 49 779
171 49 420
172 49 662
173 49 56
174 48 410
175 48 881
176 48 495
177 48 125
178 47 51
179 47 819
180 47 365
181 46 337
182 46 478
183 46 557
184 46 165
185 46 500
186 45 80
187 44 549
188 44 209
189 44 75
190 44 322
191 44 153
192 44 436
193 44 58
194 43 469
195 43 451
196 43 250
197 42 547
198 42 324
199 42 575
200 42 103
201 41 357
202 41 981
203 41 284
204 41 720
205 41 491
206 41 411
207 39 212
208 39 37
209 39 464
210 39 242
211 38 626
212 38 121
213 38 911
214 37 430
215 36 178
216 36 97
217 36 293
218 35 820
219 35 171
220 35 816
221 35 170
222 34 422
223 34 219
224 34 899
225 34 637
226 34 460
227 33 65
228 32 956
229 32 868
230 32 81
231 32 445
232 32 559
233 31 342
234 31 179
235 31 553
236 30 784
237 30 133
238 30 730
239 30 680
240 29 448
241 29 834
242 29 303
243 29 393
244 29 916
245 28 636
246 28 183
247 27 318
248 27 75
249 27 472
250 24 784
251 24 237
252 24 295
253 24 645
254 24 442
255 24 656
256 24 747
257 23 335
258 23 514
259 22 441
260 22 251
261 22 703
262 22 543
263 22 340
264 22 823
265 21 75
266 21 780
267 21 380
268 21 589
269 21 406
270 20 397
271 20 821
272 20 585
273 19 309
274 19 832
275 19 182
276 19 551
277 19 468
278 18 421
279 18 712
280 18 951
281 18 484
282 17 195
283 17 833
284 17 821
285 17 26
286 17 331
287 17 203
288 16 750
289 16 338
290 15 133
291 15 821
292 15 658
293 15 227
294 15 968
295 15 388
296 14 262
297 14 891
298 13 132
299 13 875
300 12 99
